NAME : Exhaustivo
COMMENT : Comentario 
TYPE : TSP
DIMENSION : 52
EDGE_WEIGHT_TYPE : EUC_2D
NODE_COORD_SECTION
1 25.0 230.0
2 25.0 185.0
3 95.0 260.0
4 145.0 665.0
5 300.0 465.0
6 345.0 750.0
7 410.0 250.0
8 415.0 635.0
9 420.0 555.0
10 475.0 960.0
11 480.0 415.0
12 510.0 875.0
13 520.0 585.0
14 525.0 1000.0
15 555.0 815.0
16 560.0 365.0
17 565.0 575.0
18 575.0 665.0
19 580.0 1175.0
20 595.0 360.0
21 605.0 625.0
22 650.0 1130.0
23 660.0 180.0
24 685.0 595.0
25 685.0 610.0
26 700.0 580.0
27 700.0 500.0
28 720.0 635.0
29 725.0 370.0
30 760.0 650.0
31 770.0 610.0
32 795.0 645.0
33 830.0 485.0
34 830.0 610.0
35 835.0 625.0
36 845.0 655.0
37 845.0 680.0
38 875.0 920.0
39 880.0 660.0
40 945.0 685.0
41 975.0 580.0
42 1150.0 1160.0
43 1170.0 65.0
44 1215.0 245.0
45 1220.0 580.0
46 1250.0 400.0
47 1320.0 315.0
48 1340.0 725.0
49 1465.0 200.0
50 1530.0 5.0
51 1605.0 620.0
52 1740.0 245.0